1 -1 -2 0
1 -3 -4 0
1 -3 -5 0
1 -3 2 0
1 6 -7 0
1 -2 8 0
1 -7 -1 0
1 -9 10 0
1 11 -12 0
1 -13 14 0
1 -13 -12 0
1 -13 -15 0
1 -13 16 0
1 17 -18 0
1 18 19 0
1 -4 20 0
1 -4 -21 0
1 4 22 0
1 23 24 0
1 -23 -25 0
1 23 17 0
1 14 -26 0
1 -14 21 0
1 -27 -20 0
1 27 28 0
1 -19 -29 0
1 30 -31 0
1 -30 -16 0
1 32 -33 0
1 32 27 0
1 5 -3 0
1 -34 -35 0
1 34 -36 0
1 -37 -38 0
1 -37 -39 0
1 40 41 0
1 42 40 0
1 -42 5 0
1 43 -44 0
1 43 -45 0
1 -46 9 0
1 -15 -47 0
1 48 49 0
1 -48 50 0
1 -51 52 0
1 51 35 0
1 51 -34 0
1 51 53 0
1 -54 41 0
1 -54 15 0
1 -53 55 0
1 53 -9 0
1 25 -50 0
1 24 -14 0
1 -50 -56 0
1 -57 -58 0
1 -55 -25 0
1 -59 52 0
1 59 4 0
1 -59 -22 0
1 60 61 0
1 60 62 0
1 63 -12 0
1 8 -64 0
1 8 65 0
1 66 -24 0
1 33 67 0
1 65 61 0
1 -68 -65 0
1 68 18 0
1 -69 33 0
1 -26 -70 0
1 -26 71 0
1 -72 -68 0
1 73 -74 0
1 31 -75 0
1 31 -76 0
1 31 -77 0
1 -78 79 0
1 80 -81 0
1 80 -32 0
1 82 -83 0
1 -84 85 0
1 -85 -86 0
1 -83 87 0
1 -88 -84 0
1 47 -89 0
1 -47 -90 0
1 47 -42 0
1 89 91 0
1 89 -92 0
1 93 -88 0
1 41 91 0
1 41 94 0
1 -95 -90 0
1 -96 -97 0
1 96 -90 0
1 -98 99 0
1 -98 -44 0
1 98 -100 0
1 -91 95 0
1 90 101 0
1 -94 102 0
1 103 104 0
1 103 -41 0
1 105 49 0
1 105 -106 0
1 52 99 0
1 -52 97 0
1 52 35 0
1 107 108 0
1 -97 -109 0
1 -100 52 0
1 -100 110 0
1 -100 -111 0
1 99 52 0
1 99 40 0
1 -99 105 0
1 -112 -98 0
1 -112 113 0
1 -112 -105 0
1 112 62 0
1 -56 -55 0
1 111 108 0
1 114 115 0
1 -116 -51 0
1 -108 117 0
1 -118 119 0
1 -64 -120 0
1 64 -61 0
1 -121 -116 0
1 122 123 0
1 115 114 0
1 -124 79 0
1 -124 -125 0
1 -124 -58 0
1 -58 124 0
1 58 111 0
1 -58 57 0
1 58 126 0
1 120 -49 0
1 -120 -111 0
1 127 128 0
1 127 -121 0
1 -125 -129 0
1 79 130 0
1 131 132 0
1 129 133 0
1 -129 -134 0
1 135 136 0
1 75 -131 0
1 -77 78 0
1 -137 138 0
1 139 -140 0
1 139 -137 0
1 -141 79 0
1 141 142 0
1 -143 -77 0
1 140 144 0
1 -145 76 0
1 145 142 0
1 146 139 0
1 -144 146 0
1 106 -87 0
1 106 147 0
1 148 149 0
1 148 107 0
1 -150 -147 0
1 147 -106 0
1 -147 84 0
1 151 -150 0
1 102 99 0
1 102 104 0
1 113 152 0
1 -113 147 0
1 113 153 0
1 154 -149 0
1 -154 155 0
1 -154 -112 0
1 -156 113 0
1 -156 -92 0
1 -155 157 0
1 -152 -149 0
1 -152 -154 0
1 -149 -113 0
1 149 -154 0
1 157 100 0
1 -157 118 0
1 -158 -101 0
1 -158 -159 0
1 -160 128 0
1 -160 -117 0
1 160 101 0
1 153 161 0
1 -153 162 0
1 -117 -163 0
1 -117 -109 0
1 117 116 0
1 -128 -164 0
1 128 -109 0
1 -128 159 0
1 165 160 0
1 -165 -159 0
1 -109 166 0
1 167 117 0
1 -163 -168 0
1 163 -161 0
1 -159 169 0
1 159 -123 0
1 133 75 0
1 -136 -170 0
1 -134 109 0
1 -134 -129 0
1 134 167 0
1 171 142 0
1 -172 -128 0
1 -172 -173 0
1 174 -133 0
1 -175 -176 0
1 -175 -170 0
1 177 -178 0
1 -177 172 0
1 142 141 0
1 -173 -179 0
1 178 177 0
1 180 -155 0
1 180 -181 0
1 -180 -153 0
1 164 -182 0
1 162 183 0
1 -162 184 0
1 -183 169 0
1 -183 162 0
1 -185 162 0
1 -168 -183 0
1 161 -168 0
1 -161 153 0
1 -186 187 0
1 186 184 0
1 188 164 0
1 -189 186 0
1 -189 162 0
1 182 -164 0
1 190 189 0
1 191 187 0
1 179 -191 0
1 192 169 0
1 -192 190 0
1 187 186 0
1 -193 -191 0
